
List of user-set options:

                                    Name   Value                used
                           compl_inf_tol = 1                     yes
                         constr_viol_tol = 1                     yes
                            dual_inf_tol = 1000                  yes
                           linear_solver = ma97                  yes
                              ma86_small = 1e-30                  no
                                  ma86_u = 0.0001                 no
                              ma97_order = best                  yes
                              ma97_small = 1e-30                 yes
                            ma97_switch1 = at_start              yes
                            ma97_switch2 = od_hd_reuse           yes
                                  ma97_u = 1e-06                 yes
                               ma97_umax = 0.5                   yes
                                max_iter = 1000                  yes
                    max_refinement_steps = 20                    yes
                    min_refinement_steps = 5                     yes
                                 mu_init = 1e-06                 yes
           mu_superlinear_decrease_power = 1.25                  yes
                   nlp_scaling_min_value = 1e-08                 yes
                        option_file_name = Preset_Case_68_pf.opt  yes
                             output_file = ./tmp/Preset_Case_68_pf.output  yes
                      print_user_options = yes                   yes
        required_infeasibility_reduction = 1                      no
                                     tol = 1e-08                 yes
                   warm_start_bound_frac = 1e-20                 yes
                   warm_start_bound_push = 1e-20                 yes
                   warm_start_init_point = yes                   yes
              warm_start_mult_bound_push = 1e-20                 yes
                warm_start_mult_init_max = 1e+40                 yes
             warm_start_slack_bound_frac = 1e-20                 yes
             warm_start_slack_bound_push = 1e-20                 yes

******************************************************************************
This program contains Ipopt, a library for large-scale nonlinear optimization.
 Ipopt is released as open source code under the Eclipse Public License (EPL).
         For more information visit http://projects.coin-or.org/Ipopt
******************************************************************************

This is Ipopt version 3.12.10, running with linear solver ma97.

Number of nonzeros in equality constraint Jacobian...:   123442
Number of nonzeros in inequality constraint Jacobian.:      213
Number of nonzeros in Lagrangian Hessian.............:    49069

Total number of variables............................:    31591
                     variables with only lower bounds:    12912
                variables with lower and upper bounds:    15130
                     variables with only upper bounds:        0
Total number of equality constraints.................:    31483
Total number of inequality constraints...............:       25
        inequality constraints with only lower bounds:        4
   inequality constraints with lower and upper bounds:        0
        inequality constraints with only upper bounds:       21

iter    objective    inf_pr   inf_du lg(mu)  ||d||  lg(rg) alpha_du alpha_pr  ls
   0 -5.0123605e+00 4.15e-03 1.02e+00  -6.0 0.00e+00    -  0.00e+00 0.00e+00   0
   1 -5.0119328e+00 4.14e-03 1.21e+00  -6.0 2.26e+05    -  3.91e-04 2.58e-05h  7
   2 -5.0135721e+00 1.32e-02 2.52e+01  -6.0 7.34e+03    -  1.13e-01 2.28e-03h  1
   3 -5.0148817e+00 4.40e+00 2.58e+01  -6.0 2.79e+05    -  4.39e-03 1.67e-03f  1
   4 -5.0321637e+00 4.56e+00 5.80e+01  -6.0 5.11e+03    -  1.60e-01 2.43e-02h  1
   5 -5.0872934e+00 3.23e+01 9.21e+01  -6.0 1.93e+04    -  1.52e-03 6.24e-02h  1
   6 -5.1219170e+00 3.17e+01 1.47e+02  -6.0 4.33e+03    -  4.04e-01 5.41e-02h  1
   7 -5.2018255e+00 2.98e+01 3.21e+02  -6.0 3.16e+03    -  1.85e-01 1.35e-01h  1
   8 -5.3427467e+00 3.07e+01 8.98e+02  -6.0 2.58e+03    -  4.79e-01 2.93e-01h  1
   9 -5.3363113e+00 2.21e-02 2.35e+02  -6.0 2.49e+01  -4.0 2.31e-06 1.00e+00h  1
iter    objective    inf_pr   inf_du lg(mu)  ||d||  lg(rg) alpha_du alpha_pr  ls
  10 -5.3394830e+00 9.33e-03 9.48e+01  -6.0 6.21e+00  -4.5 3.62e-01 5.77e-01h  1
  11 -5.3544791e+00 4.93e-02 7.49e+01  -6.0 4.73e+01  -5.0 7.32e-02 1.14e-01f  1
  12 -5.5046618e+00 4.84e+00 1.28e+03  -6.0 5.20e+01  -5.4 9.25e-02 1.00e+00f  1
  13 -5.5001823e+00 4.13e+00 1.09e+03  -6.0 5.36e+01  -5.9 5.48e-01 1.49e-01h  1
  14 -5.4866984e+00 3.70e-01 7.44e+01  -6.0 9.60e+01  -6.4 1.00e+00 9.80e-01h  1
  15 -5.4880346e+00 3.63e-01 7.29e+01  -6.0 4.32e+03    -  8.38e-02 1.97e-02h  2
  16 -5.4886906e+00 6.33e-01 7.22e+01  -6.0 8.79e+03    -  9.07e-02 1.01e-02h  1
  17 -5.4901997e+00 6.18e-01 7.04e+01  -6.0 4.97e+03    -  6.87e-02 2.50e-02h  3
  18 -5.4910252e+00 6.09e-01 6.93e+01  -6.0 3.67e+03    -  4.60e-02 1.48e-02h  4
  19 -5.4910287e+00 6.09e-01 6.93e+01  -6.0 1.12e+02  -6.9 5.74e-03 4.43e-04h  1
iter    objective    inf_pr   inf_du lg(mu)  ||d||  lg(rg) alpha_du alpha_pr  ls
  20 -5.5005719e+00 3.88e-01 1.56e+01  -6.0 1.48e+02  -7.3 1.00e+00 1.00e+00f  1
  21 -5.4966651e+00 1.10e-01 4.93e+00  -6.0 3.81e+01  -6.9 1.00e+00 7.58e-01h  1
  22 -5.4965618e+00 1.53e-01 2.15e-01  -6.0 1.09e+02  -7.4 1.00e+00 1.00e+00h  1
  23 -5.5002088e+00 1.03e+00 7.73e+00  -6.0 2.82e+02  -7.9 1.00e+00 1.00e+00h  1
  24 -5.5059706e+00 3.96e+00 2.89e+01  -6.0 5.50e+02  -8.3 1.00e+00 1.00e+00h  1
  25 -5.5110711e+00 6.24e+01 4.52e+02  -6.0 2.23e+03  -8.8 1.60e-03 8.92e-01h  1
  26 -5.5111458e+00 6.18e+01 7.77e+03  -6.0 1.45e+04    -  6.46e-02 1.08e-02h  1
  27 -5.5110155e+00 6.01e+01 1.50e+03  -6.0 3.20e+03    -  7.81e-02 2.74e-02h  1
  28 -5.5109891e+00 5.56e+01 1.39e+03  -6.0 2.54e+03    -  1.05e-01 7.56e-02h  1
  29 -5.5121263e+00 3.88e+01 9.74e+02  -6.0 9.83e+02  -9.3 2.14e-02 3.21e-01h  1
iter    objective    inf_pr   inf_du lg(mu)  ||d||  lg(rg) alpha_du alpha_pr  ls
  30 -5.5251889e+00 2.47e+01 6.10e+02  -6.0 1.56e+03    -  1.52e-01 3.78e-01h  1
  31 -5.5321776e+00 1.03e-02 8.28e+01  -6.0 3.50e+00  -4.4 8.55e-02 1.00e+00h  1
  32 -5.5322337e+00 6.61e-05 1.52e+00  -6.0 1.07e+00  -4.8 1.00e+00 1.00e+00h  1
  33 -5.5323204e+00 4.69e-05 1.07e-02  -6.0 3.27e+00  -5.3 1.00e+00 1.00e+00h  1
  34 -5.5325855e+00 5.10e-05 6.70e-03  -6.0 9.69e+00  -5.8 1.00e+00 1.00e+00h  1
  35 -5.5333680e+00 4.10e-04 2.95e-02  -6.0 2.88e+01  -6.3 1.00e+00 1.00e+00h  1
  36 -5.5356272e+00 2.62e-03 2.34e-01  -6.0 8.42e+01  -6.7 1.00e+00 1.00e+00h  1
  37 -5.5417066e+00 7.58e-03 1.46e+00  -6.0 2.35e+02  -7.2 1.00e+00 1.00e+00h  1
  38 -5.5553923e+00 2.14e-02 5.68e+00  -6.0 5.81e+02  -7.7 1.00e+00 1.00e+00h  1
  39 -5.5758328e+00 9.15e-02 2.53e+01  -6.0 1.09e+03  -8.2 1.00e+00 1.00e+00h  1
iter    objective    inf_pr   inf_du lg(mu)  ||d||  lg(rg) alpha_du alpha_pr  ls
  40 -5.5759783e+00 6.58e-01 2.52e+01  -6.0 2.82e+04    -  4.18e-02 6.58e-03h  1
  41 -5.5796506e+00 3.15e+00 4.06e+01  -6.0 2.40e+03    -  8.39e-01 1.77e-01h  1
  42 -5.5809115e+00 3.74e+00 7.34e+01  -6.0 2.38e+03    -  8.02e-01 9.69e-02h  1
  43 -5.5846742e+00 9.90e+00 5.48e+01  -6.0 1.78e+03    -  1.00e+00 3.77e-01h  1
  44 -5.5859607e+00 1.04e+01 4.38e+01  -6.0 1.10e+03    -  5.38e-02 5.60e-01h  1
  45 -5.5852471e+00 6.52e+00 5.90e+01  -6.0 1.10e+03  -8.7 1.37e-02 5.00e-01h  2
  46 -5.5844732e+00 2.96e-01 3.13e+00  -6.0 2.38e+02  -9.1 1.00e+00 1.00e+00h  1
  47 -5.5842592e+00 1.49e-01 3.35e+02  -6.0 4.14e+02    -  9.59e-01 1.00e+00H  1
  48 -5.5842630e+00 1.47e-02 2.74e-03  -6.0 2.89e+01    -  1.00e+00 1.00e+00h  1
  49 -5.5842627e+00 6.87e-06 8.00e-06  -6.0 6.17e-01    -  1.00e+00 1.00e+00h  1
iter    objective    inf_pr   inf_du lg(mu)  ||d||  lg(rg) alpha_du alpha_pr  ls
  50 -5.5842791e+00 8.03e-03 1.91e+02  -7.5 9.08e+02    -  6.83e-01 2.44e-02h  1
  51 -5.5845864e+00 1.24e+01 3.04e+01  -7.5 1.25e+03    -  4.57e-01 7.16e-01h  1
  52 -5.5845491e+00 2.52e+00 5.65e+00  -7.5 2.92e+02    -  7.91e-01 8.60e-01h  1
  53 -5.5845287e+00 8.70e-01 7.26e-02  -7.5 7.35e+01    -  1.00e+00 1.00e+00h  1
  54 -5.5845282e+00 2.46e-02 1.48e-03  -7.5 1.58e+01    -  1.00e+00 1.00e+00h  1
  55 -5.5845282e+00 1.46e-04 4.51e-05  -7.5 2.81e+00    -  1.00e+00 1.00e+00h  1
  56 -5.5845282e+00 1.10e-06 1.52e-07  -7.5 1.62e-01    -  1.00e+00 1.00e+00h  1
  57 -5.5845282e+00 2.86e-10 2.47e-12  -7.5 4.25e-04    -  1.00e+00 1.00e+00h  1
  58 -5.5845300e+00 4.62e-02 8.37e-01  -9.0 3.96e+01    -  7.34e-01 8.25e-01h  1
  59 -5.5845301e+00 7.11e-03 1.07e+00  -9.0 8.04e+00    -  7.94e-01 1.00e+00h  1
iter    objective    inf_pr   inf_du lg(mu)  ||d||  lg(rg) alpha_du alpha_pr  ls
  60 -5.5845302e+00 9.32e-08 9.89e-09  -9.0 3.16e-02    -  1.00e+00 1.00e+00h  1
  61 -5.5845302e+00 2.85e-10 1.54e-09  -9.0 1.81e-04    -  1.00e+00 1.00e+00h  1

Number of Iterations....: 61

                                   (scaled)                 (unscaled)
Objective...............:  -4.3629141830686340e+00   -5.5845301543278518e+00
Dual infeasibility......:   1.5410226651682509e-09    1.9725090114153612e-09
Constraint violation....:   2.8473971173514218e-10    2.8473971173514218e-10
Complementarity.........:   1.0442991604776381e-09    1.3367029254113766e-09
Overall NLP error.......:   1.5410226651682509e-09    1.9725090114153612e-09


Number of objective function evaluations             = 84
Number of objective gradient evaluations             = 62
Number of equality constraint evaluations            = 84
Number of inequality constraint evaluations          = 84
Number of equality constraint Jacobian evaluations   = 62
Number of inequality constraint Jacobian evaluations = 62
Number of Lagrangian Hessian evaluations             = 61
Total CPU secs in IPOPT (w/o function evaluations)   =    153.804
Total CPU secs in NLP function evaluations           =      2.495

EXIT: Optimal Solution Found.
